data;

set A := 964449523 507473930 315930722 288356758 753393869 131206302 450095460 599300919 722554680 214935465 256038598 816727051 733681700 618790778 517169607 444829941 672782319 181591000 809552047 324389363 546935452 453738311 434777106 823958876 303649566 608753730 282647051 29113634 602823308 762733695 701426563 737391631;
param T := 8000000000;

end;
